n_machines = 10;
n_resources = 12;
n_jobs = 100;
horizon = 53617;
LB = 8858;
n_jobs_per_resource = [15, 7, 12, 7, 13, 6, 14, 1, 5, 15, 3, 2];
duration = [280, 518, 752, 928, 688, 328, 920, 172, 388, 963, 434, 133, 750, 725, 819, 827, 496, 984, 303, 919, 52, 846, 778, 344, 292, 898, 813, 858, 246, 881, 426, 433, 952, 23, 646, 172, 212, 517, 203, 509, 264, 640, 807, 772, 845, 342, 556, 355, 289, 898, 773, 141, 571, 247, 1, 839, 947, 584, 23, 480, 923, 949, 167, 541, 734, 875, 617, 389, 836, 883, 772, 307, 543, 322, 628, 978, 373, 432, 265, 59, 490, 985, 289, 705, 760, 322, 425, 334, 534, 814, 277, 54, 827, 94, 137, 545, 62, 598, 339, 631]